p wcnf 118 142 143 
1 -31 -86 0 
1 87 109 0 
1 90 -106 0 
1 -91 20 0 
1 66 50 0 
1 51 6 0 
1 36 17 0 
1 -81 47 0 
1 -44 -77 0 
1 74 -110 0 
1 10 -47 0 
1 31 67 0 
1 60 -93 0 
1 5 -65 0 
1 60 40 0 
1 -105 5 0 
1 -107 -14 0 
1 109 97 0 
1 10 12 0 
1 -117 -40 0 
1 81 -28 0 
1 1 -60 0 
1 30 110 0 
1 88 112 0 
1 63 113 0 
1 -58 -16 0 
1 -116 -50 0 
1 -73 -116 0 
1 -108 47 0 
1 92 -27 0 
1 -86 28 0 
1 39 -13 0 
1 -82 -72 0 
1 8 -45 0 
1 82 30 0 
1 -88 61 0 
1 95 -118 0 
1 89 100 0 
1 32 14 0 
1 68 -45 0 
1 13 -41 0 
1 97 98 0 
1 108 3 0 
1 40 102 0 
1 117 75 0 
1 3 -8 0 
1 108 -8 0 
1 117 56 0 
1 -11 28 0 
1 -99 -60 0 
1 -93 99 0 
1 85 34 0 
1 -90 61 0 
1 59 -110 0 
1 54 -77 0 
1 -84 -110 0 
1 -89 -112 0 
1 116 -109 0 
1 -51 97 0 
1 89 1 0 
1 -98 107 0 
1 -54 43 0 
1 -57 96 0 
1 -83 117 0 
1 -117 36 0 
1 54 -25 0 
1 -13 -34 0 
1 106 -112 0 
1 107 102 0 
1 -2 -55 0 
1 -80 109 0 
1 -83 -61 0 
1 -9 -103 0 
1 -10 67 0 
1 -67 -5 0 
1 -118 76 0 
1 22 -1 0 
1 111 -73 0 
1 50 -115 0 
1 -80 -2 0 
1 118 -105 0 
1 -42 -55 0 
1 -19 20 0 
1 31 48 0 
1 7 -113 0 
1 31 115 0 
1 -1 -52 0 
1 34 -78 0 
1 -7 -50 0 
1 -114 -71 0 
1 43 -58 0 
1 48 -23 0 
1 8 29 0 
1 -56 113 0 
1 -52 -6 0 
1 -27 57 0 
1 -39 14 0 
1 -92 58 0 
1 -113 -4 0 
1 93 -54 0 
1 18 -12 0 
1 31 18 0 
1 27 77 0 
1 -44 118 0 
1 63 -112 0 
1 -77 -33 0 
1 -24 37 0 
1 -97 29 0 
1 46 -3 0 
1 31 97 0 
1 26 40 0 
1 96 -20 0 
1 -33 83 0 
1 -59 45 0 
1 3 -1 0 
1 -91 -57 0 
1 -3 -109 0 
1 -25 49 0 
1 37 116 0 
1 115 57 0 
1 99 36 0 
1 -3 85 0 
1 -32 46 0 
1 4 29 0 
1 -20 103 0 
1 -6 -81 0 
1 -85 34 0 
1 9 117 0 
1 -114 -38 0 
1 26 80 0 
1 52 -87 0 
1 -18 -36 0 
1 60 47 0 
1 30 -99 0 
1 83 -8 0 
1 -76 -104 0 
1 23 -44 0 
1 106 -84 0 
1 -40 69 0 
1 -25 -112 0 
1 -106 84 0 
1 89 -116 0 
